Route #1: 23 41 9 21 38 40 
Route #2: 12 8 22 28 32 37 19 27 4 
Route #3: 24 14 17 2 36 11 20 7 15 30 
Route #4: 16 5 1 42 43 
Route #5: 10 18 34 26 25 13 29 
Route #6: 6 3 31 33 44 35 39 
cost 791.443
execution_time 36.742
